225
798
217
672
152
486
352
170
459
200
90
94
216
250
860
608
490
585
112
675
350
676
369
527
864
592
390
132
660
100
560
319
920
324
25
126
248
931
722
27
405
646
102
246
480
799
555
234
258
608
700
